benchmarks_vrp/CMT4/fixed_c/CMT4_8.vrp
NAME: CMT4_8
TYPE: CVRP
COMMENT: 1028.42 - Cluster Nr.8
DIMENSION: 15
CAPACITY: 200
EDGE_WEIGHT_TYPE: EUC_2D
NODE_COORD_TYPE: TWOD_COORDS
NODE_COORD_SECTION: 
4 45 20
5 49 11
13 39 10
8 46 13
3 45 10
11 36 16
6 30 5
9 42 7
15 35 17
10 47 16
2 35 35
14 46 10
1 32 12
7 44 17
12 40 25
DEPOT_SECTION: 
2
-1
DEMAND_SECTION: 
1 7
5 18
14 23
15 7
12 9
9 5
4 11
10 25
11 10
8 8
2 0
7 9
13 10
3 18
6 8
EOF
