benchmarks_vrp/CMT4/fixed_c/CMT4_8.tour
NAME: CMT4_8 solution
TYPE: TOUR
TOUR_SECTION:
2 12 4 7 10 8 5 14 3 9 13 6 1 11 15 -1
-1
EOF